NAME : rnd45_50.tsp
TYPE : TSP
DIMENSION : 50
EDGE_WEIGHT_TYPE : EUC_2D
NODE_COORD_SECTION
1 355 533
2 349 742
3 904 298
4 174 83
5 345 951
6 846 166
7 523 371
8 403 560
9 77 955
10 700 218
11 122 824
12 591 347
13 810 121
14 898 438
15 453 220
16 972 851
17 48 99
18 576 55
19 812 231
20 147 698
21 177 654
22 686 397
23 738 150
24 829 985
25 172 427
26 687 981
27 623 877
28 57 25
29 977 820
30 116 800
31 888 790
32 589 118
33 671 356
34 311 355
35 65 179
36 979 215
37 7 305
38 57 642
39 39 551
40 160 124
41 790 279
42 305 366
43 648 988
44 233 75
45 898 706
46 94 237
47 519 107
48 427 371
49 891 555
50 527 687
